
  17    4
  10   10   10   10

   0   0   0   0   0   5 2 3 4 5 10 
  10  10  10  10  10   4 15 12 9 7 
   9  10  10  10  10   2 9 6 
   9  10  10  10  10   2 9 6 
   9  10  10  10  10   4 16 12 11 8 
   6  10  10  10  10   4 16 15 12 11 
   3  10  10  10  10   3 16 14 11 
   4  10  10  10  10   3 15 14 13 
   2  10  10  10  10   2 16 11 
  10  10  10  10  10   2 15 11 
   2  10  10  10  10   1 13 
   4  10  10  10  10   1 14 
   3  10  10  10  10   1 17
   5  10  10  10  10   1 17
  10  10  10  10  10   1 17
  10  10  10  10  10   1 17
   0   0   0   0   0   0 
